
Gurobi 12.0.2 (win64) logging started Sun Jun  8 11:32:02 2025

Set parameter LogFile to value "C:\Ioana\_uni\honours\slp\algorithm\Main_files\results\others\prox_tubules_new_model\Task_001_Sample003_irr_gurobi.log"
Gurobi Optimizer version 12.0.2 build v12.0.2rc0 (win64 - Windows 11.0 (26100.2))

CPU model: Intel(R) Core(TM) Ultra 5 125H, instruction set [SSE2|AVX|AVX2]
Thread count: 14 physical cores, 18 logical processors, using up to 18 threads

Non-default parameters:
TimeLimit  2200

Optimize a model with 47226 rows, 34496 columns and 146683 nonzeros
Model fingerprint: 0x889ec88d
Variable types: 17251 continuous, 17245 integer (17245 binary)
Coefficient statistics:
  Matrix range     [1e-04, 8e+04]
  Objective range  [2e-04, 9e-01]
  Bounds range     [1e+00, 1e+03]
  RHS range        [1e+00, 1e+00]
Presolve removed 30778 rows and 21543 columns
Presolve time: 0.31s
Presolved: 16448 rows, 12953 columns, 54670 nonzeros
Variable types: 6410 continuous, 6543 integer (6543 binary)

Root relaxation: objective 4.877538e-04, 1173 iterations, 0.07 seconds (0.11 work units)

    Nodes    |    Current Node    |     Objective Bounds      |     Work
 Expl Unexpl |  Obj  Depth IntInf | Incumbent    BestBd   Gap | It/Node Time

     0     0    0.00049    0    7          -    0.00049      -     -    0s
H    0     0                       0.2079693    0.00049   100%     -    0s
     0     0    0.01814    0   15    0.20797    0.01814  91.3%     -    0s
H    0     0                       0.2067345    0.01814  91.2%     -    0s

Explored 1 nodes (1547 simplex iterations) in 0.67 seconds (0.72 work units)
Thread count was 18 (of 18 available processors)

Solution count 2: 0.206735 0.207969 

Optimal solution found (tolerance 1.00e-04)
Best objective 2.067345276258e-01, best bound 2.067345276258e-01, gap 0.0000%
